p cnf 57 208
-3 4 -5 0
3 -4 -5 0
-3 -4 5 0
3 4 5 0
2 5 -6 0
-2 -5 -6 0
2 -5 6 0
-2 5 6 0
-6 -7 -8 0
6 7 -8 0
-6 7 8 0
6 -7 8 0
-9 -8 0
-9 3 0
8 -3 9 0
-1 -9 -10 0
1 9 -10 0
-1 9 10 0
1 -9 10 0
12 -2 0
12 -4 0
2 4 -12 0
13 -12 0
13 -4 0
12 4 -13 0
-14 -11 0
-14 13 0
11 -13 14 0
10 14 -15 0
-10 -14 -15 0
10 -14 15 0
-10 14 15 0
16 -7 0
16 1 0
7 -1 -16 0
-4 -16 -17 0
4 16 -17 0
-4 16 17 0
4 -16 17 0
-20 18 0
-20 19 0
-18 -19 20 0
20 21 0
-20 21 0
21 9 -22 0
-21 -9 -22 0
21 -9 22 0
-21 9 22 0
-23 2 0
-23 13 0
-2 -13 23 0
24 22 0
24 -23 0
-22 23 -24 0
-20 -25 -26 0
20 25 -26 0
-20 25 26 0
20 -25 26 0
-27 -18 0
-27 4 0
18 -4 27 0
-19 27 -28 0
19 -27 -28 0
-19 -27 28 0
19 27 28 0
26 28 -29 0
-26 -28 -29 0
26 -28 29 0
-26 28 29 0
30 -24 0
30 -29 0
24 29 -30 0
32 -4 0
32 31 0
4 -31 -32 0
-32 -13 -33 0
32 13 -33 0
-32 13 33 0
32 -13 33 0
34 1 0
34 31 0
-1 -31 -34 0
35 -33 0
35 34 0
33 -34 -35 0
-36 -4 0
-36 -20 0
4 20 36 0
4 -19 -37 0
-4 19 -37 0
4 19 37 0
-4 -19 37 0
-38 36 0
-38 -37 0
-36 37 38 0
-35 -38 -39 0
35 38 -39 0
-35 38 39 0
35 -38 39 0
40 -30 0
40 -39 0
30 39 -40 0
17 40 -41 0
-17 -40 -41 0
17 -40 41 0
-17 40 41 0
-42 31 0
-42 5 0
-31 -5 42 0
-43 1 0
-43 -42 0
-1 42 43 0
-44 -18 0
-44 20 0
18 -20 44 0
45 -16 0
45 -44 0
16 44 -45 0
-46 -43 0
-46 -45 0
43 45 46 0
41 46 -47 0
-41 -46 -47 0
41 -46 47 0
-41 46 47 0
-48 -15 0
-48 -47 0
15 47 48 0
20 -21 -49 0
-20 21 -49 0
20 21 49 0
-20 -21 49 0
5 2 -50 0
-5 -2 -50 0
5 -2 50 0
-5 2 50 0
-49 -50 -51 0
49 50 -51 0
-49 50 51 0
49 -50 51 0
-52 2 0
-52 6 0
-2 -6 52 0
-20 -16 -53 0
20 16 -53 0
-20 16 53 0
20 -16 53 0
53 54 0
-53 54 0
55 -52 0
55 54 0
52 -54 -55 0
56 -51 0
56 -55 0
51 55 -56 0
48 -56 -57 0
-48 56 -57 0
48 56 57 0
-48 -56 57 0
-42 -48 -17 -11 41 -5 0
48 30 0
48 6 0
22 29 49 0
-54 22 21 0
-49 -32 38 -2 -51 0
32 9 -15 12 0
-16 -28 0
-2 45 0
17 50 -7 -31 0
-43 9 12 -53 0
8 27 -13 23 -24 0
46 35 8 0
-36 1 43 -24 4 0
-13 22 0
36 -22 0
-25 -34 39 0
34 43 35 -1 0
36 -9 48 0
15 10 38 45 18 0
-34 45 25 50 -43 0
24 -25 3 0
-30 -48 49 20 0
56 -5 -13 40 0
-41 -23 19 0
-8 40 19 37 -12 -38 0
39 25 -9 26 0
-10 -28 -19 6 22 0
23 -42 0
-46 -42 43 -24 41 0
27 -57 38 52 5 0
-22 -27 -57 0
30 14 12 -45 -42 -13 0
-4 -39 -46 5 0
46 -24 -42 0
-23 17 -47 0
-16 13 -9 52 0
-7 -2 -27 -34 50 0
-11 39 5 -28 0
2 45 25 0
-23 16 0
-36 41 2 -51 -4 0
36 -35 -48 17 0
-56 23 -22 -40 0
18 -23 5 3 54 48 0
27 31 35 -2 29 0
4 -54 1 3 0
54 46 -23 31 0
57 0
